
  32    4
  10   10   10   10

   0   0   0   0   0   4 2 29 30 31 
   4   0   1   1   1   2 12 3 
   5   1   6   5   0   2 16 4 
   4   0   2   6   3   1 5 
   1   4   0   5   7   3 28 9 6 
   7   3   4   4   0   3 27 24 7 
   4   5   0   3   6   2 26 8 
  10   3   5   0   2   2 23 11 
  10   3   3   0   1   1 10 
   3   6   3   0   5   2 25 13 
   1   4   0   2   4   1 13 
   3   5   0   5   2   1 13 
   3   1   4   0   2   1 14 
   1   2   5   0   1   3 22 21 15 
   7   7   5   0   4   1 17 
   7   0   6   3   3   2 24 19 
   7   3   5   3   0   1 18 
   8   7   0   5   6   1 19 
   7   0   2   4   4   1 20 
   6   2   0   6   2   1 32
   9   4   3   0   9   1 32
   5   5   4   0   6   1 32
   2   8   4   5   0   1 32
   8   0   5   3   4   1 32
   9   0   3   5   4   1 32
   3   3   0   3   3   1 32
   4   2   8   4   0   1 32
   8   9   0   5   7   1 32
   9   0   4   5   6   1 32
   9   1   3   4   0   1 32
   1   4   3   2   0   1 32
   0   0   0   0   0   0 
